language ESSENCE' 1.0
$ loaded file: carseqdata/csplib-instance-66
letting numcars=200
letting numclasses=26
letting numoptions=5
letting optMax=[1, 2, 1, 2, 1]
letting windowSize=[2, 3, 3, 5, 5]
letting numberPerClass=[3, 2, 36, 8, 1, 5, 15, 24, 16, 4, 6, 6, 7, 6, 6, 15, 2, 1, 3, 6, 12, 3, 1, 3, 2, 7]
letting optionsRequired=[[1, 1, 0, 0, 1], [1, 0, 1, 0, 1], [0, 1, 0, 0, 0], [1, 1, 0, 1, 0], [0, 1, 1, 0, 1], [1, 1, 1, 0, 0], [1, 0, 0, 0, 0], [1, 1, 0, 0, 0], [0, 0, 1, 0, 0], [1, 0, 1, 1, 0], [0, 1, 0, 0, 1], [0, 0, 0, 0, 1], [0, 1, 1, 0, 0], [0, 0, 0, 1, 1], [1, 0, 0, 1, 0], [0, 1, 0, 1, 0], [1, 0, 0, 1, 1], [0, 0, 1, 1, 1], [1, 0, 0, 0, 1], [1, 0, 1, 0, 0], [0, 0, 0, 1, 0], [0, 0, 1, 0, 1], [1, 1, 1, 1, 0], [1, 1, 0, 1, 0], [0, 1, 1, 0, 0], [0, 0, 1, 0, 0]]
